(declare-fun v10 () (_ BitVec 13))
(assert
(let (($e9 (_ bv173 8)))
(let (($e34 (_ bv2047 12)))
(let (($e50 (_ bv2047 11)))
(let (($e482 (concat $e34 false        )))
(let (($e485 (bvand        v10           $e482 )))
(let (($e486 ((_ extract 7 0) $e485)))
(let (($e489      (bvult $e9   $e486)         ))
(let (($e500 (concat $e50  $e489)))
(let (($e502 (concat false $e500)))
(let (($e503 (bvand $e485 $e502)))
             (ite        $e489  $e503 $e485)
                                                                                                                                                                                                                                                                                                                                                                                                                                                                                                                                                                                                                                                                                                                                                                                                                                                                                                                                                                                                                                                                                                                                                                                                                                                                                                                                                                                                                                                                                                                                                                                                                                                                                                                                                                                                                                                                                                                                                                                                                                                                                                                                                                                                                                                                                                                                                                                                                                                                                                                                                                                                                                                                                                                                                                                                                                                                                                                                                                                                                                                                                                                                                                                                                                                                                                                                                                                                                                                                                                                                                                                                                                                                                                                                                                                                                                                                                                                                                                                                                                                                                                                                                                                                                                                                                                                                                                                                                                                                                                                                                                                                                                                                                                                                                                                                                                                                                                                                                                                                                                                                                                                                                                                                                                                                                                                                                                                                                                                                                                                                                            )) )          )  ))  )                                                                                                                                                                                                                                                                                                                                                                                                                   )               )                        )        )
